257
4261
182
0 2
0 7
0 12
0 13
0 15
0 40
0 115
0 133
0 135
0 136
0 145
0 150
0 223
0 242
1 5
1 10
1 11
1 17
1 116
1 117
1 134
1 139
1 203
2 7
2 12
2 13
2 15
2 20
2 22
2 23
2 28
2 31
2 32
2 35
2 36
2 40
2 41
2 44
2 51
2 115
2 133
2 135
2 136
2 145
2 150
2 223
2 242
3 4
3 6
3 8
3 9
3 14
3 16
3 21
3 25
3 26
3 33
3 45
3 46
3 50
3 53
3 64
3 67
3 76
3 78
3 79
3 81
3 85
3 89
3 91
3 99
3 101
3 118
3 119
3 120
3 121
3 124
3 126
3 128
3 130
3 138
3 140
3 142
3 153
3 158
3 169
3 170
3 174
3 192
3 210
3 230
3 248
4 6
4 8
4 9
4 14
4 16
4 25
4 26
4 33
4 45
4 46
4 50
4 53
4 64
4 67
4 118
4 119
4 120
4 121
4 124
4 126
4 128
4 130
4 138
4 140
4 142
4 153
4 158
4 170
4 174
4 192
4 210
4 230
4 248
5 10
5 11
5 12
5 17
5 21
5 24
5 27
5 29
5 30
5 34
5 42
5 43
5 47
5 48
5 49
5 52
5 54
5 55
5 116
5 117
5 134
5 139
5 203
6 8
6 9
6 14
6 16
6 25
6 26
6 33
6 45
6 46
6 50
6 53
6 64
6 67
6 138
6 140
6 142
6 153
6 158
6 170
6 174
6 192
6 210
6 230
6 248
7 12
7 13
7 15
7 20
7 22
7 23
7 28
7 31
7 32
7 35
7 36
7 40
7 41
7 44
7 51
7 58
7 60
7 61
7 63
7 65
7 66
7 69
7 72
7 77
7 83
7 84
7 86
7 87
7 103
7 115
7 133
7 135
7 136
7 145
7 150
7 173
7 187
7 190
7 206
7 209
7 223
7 229
7 242
7 247
8 9
8 14
8 16
8 25
8 26
8 33
8 45
8 46
8 50
8 53
8 64
8 67
8 174
8 192
9 14
9 16
9 25
9 26
9 33
9 45
9 46
9 50
9 53
9 64
9 67
9 86
9 87
9 123
9 125
9 127
9 129
9 131
9 137
9 141
9 143
9 144
9 146
9 147
9 148
9 174
9 192
10 11
10 12
10 17
10 21
10 24
10 27
10 29
10 30
10 34
10 42
10 43
10 47
10 48
10 49
10 52
10 54
10 55
10 66
10 69
10 88
10 94
10 96
10 104
10 105
10 106
10 111
10 113
10 116
10 117
10 124
10 134
10 139
10 142
10 170
10 175
10 176
10 177
10 178
10 180
10 194
10 203
11 12
11 17
11 21
11 24
11 27
11 29
11 30
11 34
11 42
11 43
11 47
11 48
11 49
11 52
11 54
11 55
11 66
11 69
11 88
11 94
11 96
11 104
11 105
11 106
11 111
11 113
11 116
11 117
11 124
11 134
11 139
11 142
11 194
11 203
12 13
12 15
12 17
12 19
12 21
12 24
12 27
12 29
12 30
12 34
12 40
12 42
12 43
12 47
12 48
12 49
12 52
12 54
12 55
12 56
12 59
12 66
12 69
12 79
12 88
12 94
12 96
12 99
12 104
12 105
12 106
12 111
12 113
12 115
12 118
12 124
12 133
12 135
12 136
12 139
12 142
12 145
12 150
12 185
12 194
12 223
12 242
13 15
13 20
13 22
13 23
13 28
13 31
13 32
13 35
13 36
13 40
13 41
13 44
13 51
13 62
13 68
13 70
13 71
13 73
13 74
13 75
13 85
13 89
13 91
13 115
13 126
13 133
13 135
13 136
13 145
13 150
13 223
13 242
14 16
14 25
14 26
14 33
14 45
14 46
14 50
14 53
14 64
14 67
14 86
14 87
14 123
14 125
14 127
14 129
14 131
14 137
14 141
14 143
14 144
14 146
14 147
14 148
14 151
14 154
14 156
14 161
14 162
14 163
14 174
14 176
14 177
14 178
14 192
14 234
14 237
15 20
15 22
15 23
15 28
15 31
15 32
15 35
15 36
15 40
15 41
15 44
15 51
15 62
15 68
15 70
15 71
15 73
15 74
15 75
15 85
15 89
15 91
15 115
15 126
15 133
15 135
15 136
15 145
15 150
15 184
15 191
15 193
15 195
15 196
15 223
15 242
16 25
16 26
16 33
16 45
16 46
16 50
16 53
16 64
16 67
16 86
16 87
16 94
16 111
16 113
16 123
16 125
16 127
16 129
16 131
16 137
16 141
16 143
16 144
16 146
16 147
16 148
16 157
16 164
16 165
16 174
16 180
16 192
17 21
17 24
17 27
17 29
17 30
17 34
17 42
17 43
17 47
17 48
17 49
17 52
17 54
17 55
17 72
17 90
17 92
17 93
17 95
17 107
17 108
17 109
17 110
17 112
17 116
17 117
17 128
17 130
17 134
17 139
17 179
17 181
17 203
18 25
18 26
18 33
18 37
18 45
18 46
18 64
18 67
18 76
18 97
18 182
18 192
18 199
18 239
19 21
19 24
19 27
19 29
19 30
19 34
19 56
19 59
19 79
19 99
19 118
19 135
19 185
20 22
20 23
20 28
20 31
20 32
20 35
20 36
20 40
20 41
20 44
20 51
20 136
20 145
21 24
21 27
21 29
21 30
21 34
21 42
21 43
21 47
21 48
21 49
21 52
21 54
21 55
21 56
21 59
21 76
21 78
21 79
21 81
21 85
21 89
21 91
21 99
21 101
21 102
21 103
21 118
21 119
21 126
21 135
21 139
21 153
21 155
21 169
21 171
21 173
21 185
21 188
21 205
21 209
21 227
21 229
21 245
22 23
22 28
22 31
22 32
22 35
22 36
22 40
22 41
22 44
22 51
22 58
22 60
22 61
22 63
22 65
22 66
22 69
22 72
22 136
22 145
22 187
22 190
22 206
22 247
23 28
23 31
23 32
23 35
23 36
23 40
23 41
23 44
23 51
23 58
23 60
23 61
23 63
23 65
23 66
23 69
23 72
23 80
23 82
23 88
23 90
23 92
23 93
23 94
23 95
23 121
23 124
23 128
23 130
23 136
23 142
23 145
23 187
23 190
23 206
23 247
24 27
24 29
24 30
24 34
24 42
24 43
24 47
24 48
24 49
24 52
24 54
24 55
24 56
24 59
24 79
24 99
24 118
24 135
24 139
24 185
25 26
25 33
25 37
25 45
25 46
25 50
25 53
25 64
25 67
25 76
25 97
25 138
25 140
25 142
25 153
25 158
25 170
25 174
25 182
25 192
25 199
25 210
25 230
25 239
25 248
26 33
26 37
26 45
26 46
26 50
26 53
26 64
26 67
26 76
26 97
26 174
26 182
26 192
26 199
26 239
27 29
27 30
27 34
27 42
27 43
27 47
27 48
27 49
27 52
27 54
27 55
27 56
27 59
27 66
27 69
27 79
27 88
27 94
27 96
27 99
27 104
27 105
27 106
27 111
27 113
27 118
27 124
27 135
27 139
27 142
27 170
27 175
27 176
27 177
27 178
27 180
27 185
27 194
28 31
28 32
28 35
28 36
28 40
28 41
28 44
28 51
28 62
28 68
28 70
28 71
28 73
28 74
28 75
28 85
28 89
28 91
28 126
28 136
28 145
28 184
28 191
28 193
28 195
28 196
28 200
28 203
28 207
28 210
28 212
28 214
28 215
28 250
28 251
29 30
29 34
29 42
29 43
29 47
29 48
29 49
29 52
29 54
29 55
29 56
29 59
29 66
29 69
29 79
29 88
29 94
29 96
29 99
29 104
29 105
29 106
29 111
29 113
29 118
29 124
29 135
29 139
29 142
29 185
29 194
30 34
30 42
30 43
30 47
30 48
30 49
30 52
30 54
30 55
30 56
30 59
30 72
30 79
30 90
30 92
30 93
30 95
30 99
30 107
30 108
30 109
30 110
30 112
30 118
30 128
30 130
30 135
30 139
30 161
30 177
30 179
30 181
30 185
30 217
30 226
30 235
30 239
30 244
30 247
30 254
31 32
31 35
31 36
31 40
31 41
31 44
31 51
31 62
31 68
31 70
31 71
31 73
31 74
31 75
31 85
31 89
31 91
31 126
31 136
31 145
32 35
32 36
32 40
32 41
32 44
32 51
32 62
32 68
32 70
32 71
32 73
32 74
32 75
32 85
32 89
32 91
32 126
32 136
32 145
32 184
32 191
32 193
32 195
32 196
33 37
33 45
33 46
33 50
33 53
33 64
33 67
33 76
33 86
33 87
33 97
33 123
33 125
33 127
33 129
33 131
33 137
33 141
33 143
33 144
33 146
33 147
33 148
33 151
33 154
33 156
33 161
33 162
33 163
33 174
33 176
33 177
33 178
33 182
33 192
33 199
33 234
33 237
33 239
34 35
34 42
34 43
34 47
34 48
34 49
34 52
34 54
34 55
34 56
34 59
34 72
34 73
34 79
34 90
34 92
34 93
34 95
34 99
34 107
34 108
34 109
34 110
34 112
34 118
34 128
34 130
34 135
34 139
34 179
34 181
34 185
34 197
34 211
34 213
34 218
34 248
34 249
34 252
34 253
34 256
35 36
35 40
35 41
35 44
35 51
35 54
35 62
35 68
35 70
35 71
35 73
35 74
35 75
35 85
35 89
35 91
35 93
35 107
35 110
35 126
35 136
35 145
35 188
35 189
35 194
35 197
35 198
35 211
35 213
35 218
35 219
35 248
35 249
35 252
35 253
35 256
36 40
36 41
36 44
36 51
36 62
36 68
36 70
36 71
36 73
36 74
36 75
36 85
36 89
36 91
36 126
36 136
36 145
36 188
36 189
36 194
36 197
36 198
36 219
37 39
37 41
37 44
37 45
37 46
37 51
37 64
37 67
37 76
37 97
37 98
37 116
37 167
37 182
37 192
37 199
37 222
37 239
37 241
38 40
38 50
38 53
38 56
38 166
38 174
38 240
38 242
39 41
39 44
39 45
39 46
39 51
39 97
39 98
39 116
39 167
39 222
39 241
40 41
40 44
40 50
40 51
40 53
40 56
40 115
40 133
40 135
40 136
40 145
40 150
40 166
40 174
40 223
40 240
40 242
41 44
41 45
41 46
41 51
41 97
41 98
41 116
41 136
41 145
41 167
41 222
41 241
42 43
42 47
42 48
42 49
42 52
42 54
42 55
42 99
42 101
42 102
42 103
42 139
42 155
42 169
42 171
42 173
42 188
42 205
42 209
42 227
42 229
42 245
43 47
43 48
43 49
43 52
43 54
43 55
43 139
44 45
44 46
44 51
44 58
44 60
44 61
44 63
44 65
44 66
44 69
44 72
44 77
44 83
44 84
44 86
44 87
44 97
44 98
44 103
44 116
44 136
44 145
44 167
44 173
44 187
44 190
44 206
44 209
44 222
44 229
44 241
44 247
45 46
45 50
45 51
45 53
45 64
45 67
45 76
45 97
45 98
45 116
45 138
45 140
45 142
45 153
45 158
45 167
45 170
45 174
45 182
45 192
45 199
45 210
45 222
45 230
45 239
45 241
45 248
46 50
46 51
46 53
46 64
46 67
46 76
46 97
46 98
46 116
46 167
46 174
46 182
46 192
46 199
46 222
46 239
46 241
47 48
47 49
47 52
47 54
47 55
47 66
47 69
47 88
47 94
47 96
47 104
47 105
47 106
47 111
47 113
47 124
47 139
47 142
47 149
47 150
47 153
47 158
47 159
47 170
47 175
47 176
47 177
47 178
47 180
47 191
47 194
47 200
47 203
47 210
47 211
47 212
47 221
47 223
47 230
47 231
47 248
47 249
47 250
48 49
48 52
48 54
48 55
48 66
48 69
48 88
48 94
48 96
48 104
48 105
48 106
48 111
48 113
48 124
48 139
48 142
48 170
48 175
48 176
48 177
48 178
48 180
48 194
49 52
49 54
49 55
49 66
49 69
49 88
49 94
49 96
49 104
49 105
49 106
49 111
49 113
49 124
49 139
49 142
49 194
50 53
50 56
50 64
50 67
50 68
50 86
50 87
50 107
50 123
50 125
50 127
50 129
50 131
50 137
50 141
50 143
50 144
50 146
50 147
50 148
50 152
50 155
50 160
50 166
50 174
50 192
50 195
50 207
50 215
50 224
50 233
50 240
50 242
50 253
51 62
51 68
51 70
51 71
51 73
51 74
51 75
51 85
51 89
51 91
51 97
51 98
51 116
51 126
51 136
51 145
51 167
51 222
51 241
52 54
52 55
52 71
52 72
52 90
52 92
52 93
52 95
52 107
52 108
52 109
52 110
52 112
52 128
52 130
52 139
52 179
52 181
52 236
52 250
52 251
52 255
53 56
53 64
53 67
53 86
53 87
53 94
53 111
53 113
53 123
53 125
53 127
53 129
53 131
53 137
53 141
53 143
53 144
53 146
53 147
53 148
53 157
53 164
53 165
53 166
53 174
53 180
53 192
53 240
53 242
54 55
54 72
54 73
54 90
54 92
54 93
54 95
54 107
54 108
54 109
54 110
54 112
54 128
54 130
54 139
54 179
54 181
54 197
54 211
54 213
54 218
54 248
54 249
54 252
54 253
54 256
55 72
55 90
55 92
55 93
55 95
55 107
55 108
55 109
55 110
55 112
55 128
55 130
55 139
55 179
55 181
56 57
56 59
56 64
56 67
56 76
56 78
56 79
56 99
56 118
56 135
56 151
56 166
56 174
56 182
56 183
56 185
56 192
56 199
56 201
56 239
56 240
56 242
57 59
57 64
57 67
57 76
57 78
57 79
57 99
57 118
57 151
57 182
57 183
57 185
57 192
57 199
57 201
57 239
58 60
58 61
58 63
58 65
58 66
58 69
58 72
58 80
58 82
58 88
58 90
58 92
58 93
58 94
58 95
58 97
58 98
58 100
58 121
58 124
58 128
58 130
58 142
58 152
58 166
58 167
58 168
58 174
58 184
58 187
58 190
58 202
58 206
58 222
58 224
58 225
58 240
58 241
58 242
58 243
58 247
59 64
59 67
59 76
59 78
59 79
59 99
59 118
59 135
59 151
59 182
59 183
59 185
59 192
59 199
59 201
59 239
60 61
60 63
60 65
60 66
60 69
60 72
60 187
60 190
60 206
60 247
61 63
61 65
61 66
61 69
61 72
61 80
61 82
61 88
61 90
61 92
61 93
61 94
61 95
61 121
61 124
61 128
61 130
61 142
61 187
61 190
61 206
61 247
62 68
62 70
62 71
62 73
62 74
62 75
62 85
62 89
62 91
62 126
62 145
62 156
62 157
62 184
62 188
62 189
62 194
62 197
62 198
62 202
62 205
62 208
62 209
62 219
62 222
62 225
62 227
62 228
62 229
62 240
62 241
62 242
62 243
62 245
62 246
63 65
63 66
63 69
63 72
63 77
63 83
63 84
63 86
63 87
63 103
63 173
63 187
63 190
63 206
63 209
63 229
63 247
64 67
64 76
64 78
64 79
64 97
64 99
64 118
64 138
64 140
64 142
64 151
64 153
64 158
64 170
64 174
64 182
64 183
64 185
64 192
64 199
64 201
64 210
64 230
64 239
64 248
65 66
65 69
65 72
65 77
65 83
65 84
65 86
65 87
65 103
65 114
65 115
65 116
65 117
65 122
65 123
65 125
65 127
65 129
65 131
65 173
65 187
65 190
65 206
65 209
65 229
65 247
66 69
66 72
66 80
66 82
66 88
66 90
66 92
66 93
66 94
66 95
66 96
66 104
66 105
66 106
66 111
66 113
66 121
66 124
66 128
66 130
66 142
66 170
66 175
66 176
66 177
66 178
66 180
66 187
66 190
66 194
66 206
66 247
67 76
67 78
67 79
67 86
67 87
67 97
67 99
67 118
67 123
67 125
67 127
67 129
67 131
67 137
67 141
67 143
67 144
67 146
67 147
67 148
67 151
67 174
67 182
67 183
67 185
67 192
67 199
67 201
67 239
68 70
68 71
68 73
68 74
68 75
68 85
68 87
68 89
68 91
68 107
68 126
68 143
68 145
68 152
68 155
68 160
68 184
68 191
68 193
68 195
68 196
68 200
68 203
68 207
68 210
68 212
68 214
68 215
68 224
68 233
68 250
68 251
68 253
69 72
69 80
69 82
69 88
69 90
69 92
69 93
69 94
69 95
69 96
69 104
69 105
69 106
69 111
69 113
69 121
69 124
69 128
69 130
69 142
69 187
69 190
69 194
69 206
69 247
70 71
70 73
70 74
70 75
70 85
70 89
70 91
70 126
70 145
71 72
71 73
71 74
71 75
71 85
71 89
71 91
71 92
71 109
71 126
71 128
71 145
71 179
71 188
71 189
71 194
71 197
71 198
71 219
71 236
71 250
71 251
71 255
72 80
72 82
72 88
72 90
72 92
72 93
72 94
72 95
72 107
72 108
72 109
72 110
72 112
72 121
72 124
72 128
72 130
72 142
72 179
72 181
72 187
72 190
72 206
72 236
72 247
72 250
72 251
72 255
73 74
73 75
73 85
73 89
73 91
73 93
73 107
73 110
73 126
73 145
73 188
73 189
73 194
73 197
73 198
73 211
73 213
73 218
73 219
73 248
73 249
73 252
73 253
73 256
74 75
74 85
74 89
74 91
74 126
74 145
74 188
74 189
74 194
74 197
74 198
74 219
75 85
75 89
75 91
75 126
75 131
75 145
75 156
75 161
75 177
75 184
75 191
75 193
75 195
75 196
75 202
75 205
75 208
75 209
75 211
75 213
75 217
75 218
75 220
76 78
76 79
76 81
76 85
76 89
76 91
76 97
76 99
76 101
76 118
76 119
76 126
76 151
76 153
76 169
76 182
76 183
76 185
76 192
76 199
76 201
76 239
77 83
77 84
77 86
77 87
77 96
77 103
77 114
77 115
77 116
77 117
77 122
77 123
77 125
77 127
77 129
77 131
77 132
77 133
77 134
77 135
77 136
77 139
77 145
77 149
77 150
77 173
77 190
77 200
77 203
77 209
77 221
77 223
77 229
77 247
78 79
78 81
78 85
78 89
78 91
78 99
78 101
78 118
78 119
78 126
78 151
78 153
78 169
78 182
78 183
78 185
78 192
78 199
78 201
78 239
79 81
79 85
79 89
79 91
79 99
79 101
79 118
79 119
79 126
79 135
79 151
79 153
79 169
79 182
79 183
79 185
79 192
79 199
79 201
79 239
80 82
80 88
80 90
80 92
80 93
80 94
80 95
80 97
80 98
80 100
80 121
80 124
80 128
80 130
80 142
80 152
80 166
80 167
80 168
80 174
80 184
80 202
80 222
80 224
80 225
80 240
80 241
80 242
80 243
81 85
81 89
81 91
81 99
81 101
81 118
81 119
81 126
81 153
81 169
82 88
82 90
82 92
82 93
82 94
82 95
82 121
82 124
82 128
82 130
82 142
83 84
83 86
83 87
83 103
83 173
83 190
83 209
83 229
83 247
84 86
84 87
84 103
84 114
84 115
84 116
84 117
84 122
84 123
84 125
84 127
84 129
84 131
84 173
84 190
84 209
84 229
84 247
85 89
85 91
85 99
85 101
85 118
85 119
85 126
85 145
85 153
85 169
85 184
85 191
85 193
85 195
85 196
85 200
85 203
85 207
85 210
85 212
85 214
85 215
85 250
85 251
86 87
86 103
86 114
86 115
86 116
86 117
86 122
86 123
86 125
86 127
86 129
86 131
86 137
86 141
86 143
86 144
86 146
86 147
86 148
86 173
86 190
86 209
86 229
86 247
87 103
87 107
87 114
87 115
87 116
87 117
87 122
87 123
87 125
87 127
87 129
87 131
87 137
87 141
87 143
87 144
87 146
87 147
87 148
87 152
87 155
87 160
87 173
87 190
87 195
87 207
87 209
87 215
87 224
87 229
87 233
87 247
87 253
88 90
88 92
88 93
88 94
88 95
88 96
88 104
88 105
88 106
88 111
88 113
88 121
88 124
88 128
88 130
88 142
88 194
89 91
89 99
89 101
89 118
89 119
89 126
89 145
89 153
89 169
90 92
90 93
90 94
90 95
90 107
90 108
90 109
90 110
90 112
90 121
90 124
90 128
90 130
90 142
90 161
90 177
90 179
90 181
90 217
90 226
90 235
90 239
90 244
90 247
90 254
91 99
91 101
91 118
91 119
91 126
91 145
91 153
91 169
91 184
91 191
91 193
91 195
91 196
92 93
92 94
92 95
92 107
92 108
92 109
92 110
92 112
92 121
92 124
92 128
92 130
92 142
92 179
92 181
92 236
92 250
92 251
92 255
93 94
93 95
93 107
93 108
93 109
93 110
93 112
93 121
93 124
93 128
93 130
93 142
93 179
93 181
93 197
93 211
93 213
93 218
93 248
93 249
93 252
93 253
93 256
94 95
94 96
94 104
94 105
94 106
94 111
94 113
94 121
94 124
94 128
94 129
94 130
94 142
94 147
94 148
94 157
94 164
94 165
94 170
94 175
94 176
94 177
94 178
94 180
94 194
95 107
95 108
95 109
95 110
95 112
95 121
95 124
95 128
95 130
95 142
95 179
95 181
96 104
96 105
96 106
96 111
96 113
96 114
96 115
96 116
96 117
96 124
96 132
96 133
96 134
96 135
96 136
96 139
96 142
96 145
96 149
96 150
96 153
96 158
96 159
96 170
96 175
96 176
96 177
96 178
96 180
96 191
96 194
96 200
96 203
96 210
96 211
96 212
96 221
96 223
96 230
96 231
96 248
96 249
96 250
97 98
97 100
97 116
97 152
97 166
97 167
97 168
97 174
97 182
97 184
97 192
97 199
97 202
97 222
97 224
97 225
97 239
97 240
97 241
97 242
97 243
98 100
98 116
98 152
98 166
98 167
98 168
98 174
98 184
98 202
98 222
98 224
98 225
98 240
98 241
98 242
98 243
99 101
99 102
99 103
99 118
99 119
99 126
99 135
99 151
99 153
99 155
99 169
99 171
99 173
99 182
99 183
99 185
99 188
99 192
99 199
99 201
99 205
99 209
99 227
99 229
99 239
99 245
100 152
100 166
100 167
100 168
100 174
100 184
100 202
100 222
100 224
100 225
100 240
100 241
100 242
100 243
101 102
101 103
101 118
101 119
101 126
101 153
101 155
101 169
101 171
101 173
101 188
101 205
101 209
101 227
101 229
101 245
102 103
102 155
102 169
102 171
102 173
102 188
102 205
102 209
102 227
102 229
102 245
103 155
103 169
103 171
103 173
103 188
103 190
103 205
103 209
103 227
103 229
103 245
103 247
104 105
104 106
104 111
104 113
104 124
104 142
104 149
104 150
104 153
104 158
104 159
104 170
104 175
104 176
104 177
104 178
104 180
104 191
104 194
104 200
104 203
104 210
104 211
104 212
104 221
104 223
104 230
104 231
104 248
104 249
104 250
105 106
105 111
105 113
105 124
105 142
105 170
105 175
105 176
105 177
105 178
105 180
105 194
106 111
106 113
106 124
106 142
106 194
107 108
107 109
107 110
107 112
107 128
107 130
107 143
107 152
107 155
107 160
107 179
107 181
107 195
107 197
107 207
107 211
107 213
107 215
107 218
107 221
107 223
107 224
107 230
107 231
107 232
107 233
107 234
107 237
107 248
107 249
107 252
107 253
107 256
108 109
108 110
108 112
108 128
108 130
108 161
108 177
108 179
108 181
108 217
108 226
108 235
108 239
108 244
108 247
108 254
109 110
109 112
109 128
109 130
109 179
109 181
109 236
109 250
109 251
109 255
110 112
110 128
110 130
110 179
110 181
110 197
110 211
110 213
110 218
110 248
110 249
110 252
110 253
110 256
111 113
111 124
111 129
111 142
111 147
111 148
111 157
111 164
111 165
111 170
111 175
111 176
111 177
111 178
111 180
111 194
112 128
112 130
112 179
112 181
113 124
113 129
113 142
113 147
113 148
113 157
113 164
113 165
113 170
113 175
113 176
113 177
113 178
113 180
113 194
113 222
113 225
113 226
113 227
113 228
113 229
113 235
113 236
113 238
114 115
114 116
114 117
114 122
114 123
114 125
114 127
114 129
114 131
114 132
114 133
114 134
114 135
114 136
114 139
114 145
114 149
114 150
114 200
114 203
114 221
114 223
115 116
115 117
115 122
115 123
115 125
115 127
115 129
115 131
115 132
115 133
115 134
115 135
115 136
115 139
115 145
115 149
115 150
115 200
115 203
115 221
115 223
115 242
116 117
116 122
116 123
116 125
116 127
116 129
116 131
116 132
116 133
116 134
116 135
116 136
116 139
116 145
116 149
116 150
116 167
116 200
116 203
116 221
116 222
116 223
116 241
117 122
117 123
117 125
117 127
117 129
117 131
117 132
117 133
117 134
117 135
117 136
117 139
117 145
117 149
117 150
117 200
117 203
117 221
117 223
118 119
118 120
118 121
118 124
118 126
118 128
118 130
118 135
118 138
118 142
118 151
118 153
118 169
118 170
118 182
118 183
118 185
118 192
118 199
118 201
118 239
119 120
119 121
119 124
119 126
119 128
119 130
119 138
119 142
119 153
119 169
119 170
120 121
120 124
120 126
120 128
120 130
120 138
120 142
120 153
120 170
121 124
121 126
121 128
121 130
121 138
121 142
121 153
121 170
122 123
122 125
122 127
122 129
122 131
123 125
123 127
123 129
123 131
123 137
123 141
123 143
123 144
123 146
123 147
123 148
124 126
124 128
124 130
124 138
124 142
124 153
124 170
124 194
125 127
125 129
125 131
125 137
125 141
125 143
125 144
125 146
125 147
125 148
125 151
125 154
125 156
125 161
125 162
125 163
125 176
125 177
125 178
125 199
125 201
125 204
125 206
125 216
125 219
125 234
125 237
126 128
126 130
126 138
126 142
126 145
126 153
126 169
126 170
127 129
127 131
127 137
127 141
127 143
127 144
127 146
127 147
127 148
127 151
127 154
127 156
127 161
127 162
127 163
127 176
127 177
127 178
127 234
127 237
128 130
128 138
128 142
128 153
128 170
128 179
128 181
128 236
128 250
128 251
128 255
129 131
129 137
129 141
129 143
129 144
129 146
129 147
129 148
129 157
129 164
129 165
129 180
130 138
130 142
130 153
130 170
130 179
130 181
131 137
131 141
131 143
131 144
131 146
131 147
131 148
131 151
131 154
131 156
131 161
131 162
131 163
131 176
131 177
131 178
131 184
131 202
131 205
131 208
131 209
131 211
131 213
131 217
131 218
131 220
131 234
131 237
132 133
132 134
132 135
132 136
132 139
132 145
132 149
132 150
132 200
132 203
132 221
132 223
133 134
133 135
133 136
133 139
133 145
133 149
133 150
133 200
133 203
133 221
133 223
133 242
134 135
134 136
134 139
134 145
134 149
134 150
134 200
134 203
134 221
134 223
135 136
135 139
135 145
135 149
135 150
135 185
135 200
135 203
135 221
135 223
135 242
136 139
136 145
136 149
136 150
136 200
136 203
136 221
136 223
136 242
137 141
137 143
137 144
137 146
137 147
137 148
137 151
137 154
137 156
137 161
137 162
137 163
137 176
137 177
137 178
137 182
137 183
137 185
137 186
137 187
137 190
137 192
137 199
137 201
137 204
137 206
137 216
137 219
137 226
137 234
137 237
137 239
137 244
137 247
138 140
138 142
138 153
138 158
138 170
138 210
138 230
138 248
139 145
139 149
139 150
139 200
139 203
139 221
139 223
140 142
140 153
140 158
140 170
140 210
140 230
140 248
141 143
141 144
141 146
141 147
141 148
142 153
142 158
142 170
142 194
142 210
142 230
142 248
143 144
143 146
143 147
143 148
143 152
143 155
143 160
143 195
143 207
143 215
143 224
143 233
143 253
144 146
144 147
144 148
144 151
144 154
144 156
144 161
144 162
144 163
144 176
144 177
144 178
144 199
144 201
144 204
144 206
144 216
144 219
144 234
144 237
145 149
145 150
145 200
145 203
145 221
145 223
145 242
146 147
146 148
146 151
146 154
146 156
146 161
146 162
146 163
146 176
146 177
146 178
146 234
146 237
147 148
147 157
147 164
147 165
147 180
148 157
148 164
148 165
148 180
148 222
148 225
148 226
148 227
148 228
148 229
148 235
148 236
148 238
149 150
149 153
149 158
149 159
149 170
149 191
149 200
149 203
149 210
149 211
149 212
149 221
149 223
149 230
149 231
149 248
149 249
149 250
150 153
150 158
150 159
150 170
150 191
150 200
150 203
150 210
150 211
150 212
150 221
150 223
150 230
150 231
150 242
150 248
150 249
150 250
151 154
151 156
151 161
151 162
151 163
151 176
151 177
151 178
151 182
151 183
151 185
151 186
151 187
151 190
151 192
151 199
151 201
151 204
151 206
151 216
151 219
151 226
151 234
151 237
151 239
151 244
151 247
152 155
152 160
152 166
152 167
152 168
152 169
152 171
152 172
152 173
152 174
152 179
152 181
152 184
152 195
152 202
152 207
152 215
152 222
152 224
152 225
152 233
152 240
152 241
152 242
152 243
152 253
153 158
153 159
153 169
153 170
153 191
153 200
153 203
153 210
153 211
153 212
153 221
153 223
153 230
153 231
153 248
153 249
153 250
154 156
154 161
154 162
154 163
154 176
154 177
154 178
154 182
154 183
154 185
154 186
154 187
154 190
154 192
154 199
154 201
154 204
154 206
154 216
154 219
154 226
154 234
154 237
154 239
154 244
154 247
155 160
155 166
155 167
155 168
155 169
155 171
155 172
155 173
155 174
155 179
155 181
155 188
155 195
155 205
155 207
155 209
155 215
155 224
155 227
155 229
155 233
155 245
155 253
156 157
156 161
156 162
156 163
156 176
156 177
156 178
156 184
156 188
156 189
156 194
156 202
156 205
156 208
156 209
156 211
156 213
156 217
156 218
156 220
156 222
156 225
156 227
156 228
156 229
156 234
156 237
156 240
156 241
156 242
156 243
156 245
156 246
157 164
157 165
157 180
157 184
157 188
157 189
157 194
157 202
157 205
157 208
157 209
157 222
157 225
157 226
157 227
157 228
157 229
157 235
157 236
157 238
157 240
157 241
157 242
157 243
157 245
157 246
158 159
158 170
158 191
158 200
158 203
158 210
158 211
158 212
158 221
158 223
158 230
158 231
158 248
158 249
158 250
159 170
159 191
159 200
159 203
159 210
159 211
159 212
159 221
159 223
159 230
159 231
159 248
159 249
159 250
160 195
160 207
160 215
160 224
160 233
160 253
161 162
161 163
161 176
161 177
161 178
161 184
161 202
161 205
161 208
161 209
161 211
161 213
161 217
161 218
161 220
161 226
161 234
161 235
161 237
161 239
161 244
161 247
161 254
162 163
162 176
162 177
162 178
162 199
162 201
162 204
162 206
162 216
162 219
162 234
162 237
163 176
163 177
163 178
163 234
163 237
164 165
164 180
165 180
165 222
165 225
165 226
165 227
165 228
165 229
165 235
165 236
165 238
166 167
166 168
166 169
166 171
166 172
166 173
166 174
166 179
166 181
166 184
166 202
166 207
166 222
166 224
166 225
166 240
166 241
166 242
166 243
167 168
167 169
167 171
167 172
167 173
167 174
167 179
167 181
167 184
167 202
167 207
167 222
167 224
167 225
167 240
167 241
167 242
167 243
168 169
168 171
168 172
168 173
168 174
168 179
168 181
168 184
168 202
168 207
168 222
168 224
168 225
168 240
168 241
168 242
168 243
169 171
169 172
169 173
169 174
169 179
169 181
169 188
169 205
169 207
169 209
169 224
169 227
169 229
169 245
170 175
170 176
170 177
170 178
170 180
170 191
170 194
170 200
170 203
170 210
170 211
170 212
170 221
170 223
170 230
170 231
170 248
170 249
170 250
171 172
171 173
171 174
171 179
171 181
171 188
171 205
171 207
171 209
171 224
171 227
171 229
171 245
172 173
172 174
172 179
172 181
172 207
172 224
173 174
173 179
173 181
173 188
173 190
173 205
173 207
173 209
173 224
173 227
173 229
173 245
173 247
174 179
174 181
174 184
174 192
174 202
174 207
174 222
174 224
174 225
174 240
174 241
174 242
174 243
175 176
175 177
175 178
175 180
175 194
176 177
176 178
176 180
176 194
176 199
176 201
176 204
176 206
176 216
176 219
176 234
176 237
177 178
177 180
177 184
177 194
177 202
177 205
177 208
177 209
177 211
177 213
177 217
177 218
177 220
177 226
177 234
177 235
177 237
177 239
177 244
177 247
177 254
178 180
178 194
178 234
178 237
179 181
179 207
179 224
179 236
179 250
179 251
179 255
180 194
181 207
181 224
182 183
182 185
182 186
182 187
182 190
182 192
182 199
182 201
182 204
182 206
182 226
182 239
182 244
182 247
183 185
183 186
183 187
183 190
183 192
183 199
183 201
183 204
183 206
183 226
183 239
183 244
183 247
184 188
184 189
184 191
184 193
184 194
184 195
184 196
184 202
184 205
184 208
184 209
184 211
184 213
184 217
184 218
184 220
184 222
184 224
184 225
184 227
184 228
184 229
184 240
184 241
184 242
184 243
184 245
184 246
185 186
185 187
185 190
185 192
185 199
185 201
185 204
185 206
185 226
185 239
185 244
185 247
186 187
186 190
186 192
186 199
186 201
186 204
186 206
186 226
186 239
186 244
186 247
187 190
187 192
187 199
187 201
187 204
187 206
187 226
187 239
187 244
187 247
188 189
188 194
188 197
188 198
188 202
188 205
188 208
188 209
188 219
188 222
188 225
188 227
188 228
188 229
188 240
188 241
188 242
188 243
188 245
188 246
189 194
189 197
189 198
189 202
189 205
189 208
189 209
189 219
189 222
189 225
189 227
189 228
189 229
189 240
189 241
189 242
189 243
189 245
189 246
190 192
190 199
190 201
190 204
190 206
190 209
190 226
190 229
190 239
190 244
190 247
191 193
191 195
191 196
191 200
191 203
191 207
191 210
191 211
191 212
191 214
191 215
191 221
191 223
191 230
191 231
191 248
191 249
191 250
191 251
192 199
192 201
192 204
192 206
192 226
192 239
192 244
192 247
193 195
193 196
193 200
193 203
193 207
193 210
193 212
193 214
193 215
193 250
193 251
194 197
194 198
194 202
194 205
194 208
194 209
194 219
194 222
194 225
194 227
194 228
194 229
194 240
194 241
194 242
194 243
194 245
194 246
195 196
195 200
195 203
195 207
195 210
195 212
195 214
195 215
195 224
195 233
195 250
195 251
195 253
197 198
197 211
197 213
197 218
197 219
197 248
197 249
197 252
197 253
197 256
198 219
199 201
199 204
199 206
199 216
199 219
199 226
199 234
199 239
199 244
199 247
200 203
200 207
200 210
200 211
200 212
200 214
200 215
200 221
200 223
200 230
200 231
200 248
200 249
200 250
200 251
201 204
201 206
201 216
201 219
201 226
201 234
201 239
201 244
201 247
202 205
202 208
202 209
202 211
202 213
202 217
202 218
202 220
202 222
202 224
202 225
202 227
202 228
202 229
202 240
202 241
202 242
202 243
202 245
202 246
203 207
203 210
203 211
203 212
203 214
203 215
203 221
203 223
203 230
203 231
203 248
203 249
203 250
203 251
204 206
204 216
204 219
204 226
204 234
204 239
204 244
204 247
205 208
205 209
205 211
205 213
205 217
205 218
205 220
205 222
205 225
205 227
205 228
205 229
205 240
205 241
205 242
205 243
205 245
205 246
206 216
206 219
206 226
206 234
206 239
206 244
206 247
207 210
207 212
207 214
207 215
207 224
207 233
207 250
207 251
207 253
208 209
208 211
208 213
208 217
208 218
208 220
208 222
208 225
208 227
208 228
208 229
208 240
208 241
208 242
208 243
208 245
208 246
209 211
209 213
209 217
209 218
209 220
209 222
209 225
209 227
209 228
209 229
209 240
209 241
209 242
209 243
209 245
209 246
209 247
210 211
210 212
210 214
210 215
210 221
210 223
210 230
210 231
210 248
210 249
210 250
210 251
211 212
211 213
211 217
211 218
211 220
211 221
211 223
211 224
211 230
211 231
211 232
211 233
211 234
211 237
211 248
211 249
211 250
211 252
211 253
211 256
212 214
212 215
212 221
212 223
212 230
212 231
212 248
212 249
212 250
212 251
213 217
213 218
213 220
213 221
213 223
213 224
213 230
213 231
213 232
213 233
213 234
213 237
213 248
213 249
213 252
213 253
213 256
214 215
214 250
214 251
215 224
215 233
215 250
215 251
215 253
216 219
216 234
217 218
217 220
217 226
217 235
217 239
217 244
217 247
217 254
218 220
218 248
218 249
218 252
218 253
218 256
219 234
221 223
221 224
221 230
221 231
221 232
221 233
221 234
221 237
221 248
221 249
221 250
221 252
221 253
222 224
222 225
222 226
222 227
222 228
222 229
222 235
222 236
222 238
222 240
222 241
222 242
222 243
222 245
222 246
223 224
223 230
223 231
223 232
223 233
223 234
223 237
223 242
223 248
223 249
223 250
223 252
223 253
224 225
224 230
224 231
224 232
224 233
224 234
224 237
224 240
224 241
224 242
224 243
224 248
224 249
224 252
224 253
225 226
225 227
225 228
225 229
225 235
225 236
225 238
225 240
225 241
225 242
225 243
225 245
225 246
226 227
226 228
226 229
226 235
226 236
226 238
226 239
226 244
226 247
226 254
227 228
227 229
227 235
227 236
227 238
227 240
227 241
227 242
227 243
227 245
227 246
228 229
228 235
228 236
228 238
228 240
228 241
228 242
228 243
228 245
228 246
229 235
229 236
229 238
229 240
229 241
229 242
229 243
229 245
229 246
229 247
230 231
230 232
230 233
230 234
230 237
230 248
230 249
230 250
230 252
230 253
231 232
231 233
231 234
231 237
231 248
231 249
231 250
231 252
231 253
232 233
232 234
232 237
232 248
232 249
232 252
232 253
233 234
233 237
233 248
233 249
233 252
233 253
234 237
234 248
234 249
234 252
234 253
235 236
235 238
235 239
235 244
235 247
235 254
236 238
236 250
236 251
236 255
237 248
237 249
237 252
237 253
239 244
239 247
239 254
240 241
240 242
240 243
240 245
240 246
241 242
241 243
241 245
241 246
242 243
242 245
242 246
243 245
243 246
244 247
244 254
245 246
247 254
248 249
248 250
248 252
248 253
248 256
249 250
249 252
249 253
249 256
250 251
250 255
251 255
252 253
252 256
253 256
0
1
2 3
4
5
6 7
8
9 10
11 12
13
14 15
16
17
18
19
20 21
22
23 24
25
26
27 28
29
30 31
32 33
34 35
36
37 38
39
40 41
42
43
44 45
46 47
48
49 50
51
52
53 54
55
56
57
58 59
60
61 62
63 64
65
66 67
68 69
70
71 72
73
74 75
76 77
78
79 80
81
82
83
84
85 86
87 88
89 90
91 92
93 94
95
96 97
98
99 100
101
102
103
104
105
106 107
108
109
110 111
112 113
114
115 116
117 118
119
120
121
122
123
124
125 126
127 128
129
130 131
132
133
134 135
136 137
138
139
140
141
142 143
144 145
146
147
148
149
150 151
152
153 154
155
156 157
158
159
160
161 162
163
164
165
166
167
168
169
170 171
172
173
174
175
176 177
178 179
180
181
182
183
184 185
186
187 188
189
190
191 192
193 194
195
196
197
198
199 200
201
202 203
204
205 206
207 208
209 210
211 212
213 214
215
216 217
218
219 220
221
222 223
224 225
226
227
228
229 230
231
232
233
234 235
236 237
238
239 240
241 242
243
244
245
246
247 248
249 250
251 252
253
254
255
256
